NAME          
ROWS
 N  OBJ
 L  c1
 L  c2
 L  c3
 L  c4
 L  c5
COLUMNS
    MARKER    'MARKER'                 'INTORG'
    x[1]      c1        31
    x[1]      c2        5
    x[1]      c3        639
    x[1]      c4        63
    x[1]      c5        541
    x[1]      OBJ       -64
    x[2]      c1        649
    x[2]      c2        842
    x[2]      c3        687
    x[2]      c4        740
    x[2]      c5        756
    x[2]      OBJ       -576
    x[3]      c1        867
    x[3]      c2        832
    x[3]      c3        639
    x[3]      c4        422
    x[3]      c5        33
    x[3]      OBJ       -58
    x[4]      c1        594
    x[4]      c2        995
    x[4]      c3        2
    x[4]      c4        566
    x[4]      c5        107
    x[4]      OBJ       -198
    x[5]      c1        500
    x[5]      c2        880
    x[5]      c3        304
    x[5]      c4        960
    x[5]      c5        122
    x[5]      OBJ       -704
    x[6]      c1        169
    x[6]      c2        578
    x[6]      c3        545
    x[6]      c4        314
    x[6]      c5        431
    x[6]      OBJ       -701
    x[7]      c1        712
    x[7]      c2        797
    x[7]      c3        725
    x[7]      c4        486
    x[7]      c5        507
    x[7]      OBJ       -208
    x[8]      c1        561
    x[8]      c2        4
    x[8]      c3        926
    x[8]      c4        465
    x[8]      c5        53
    x[8]      OBJ       -970
    x[9]      c1        610
    x[9]      c2        463
    x[9]      c3        88
    x[9]      c4        31
    x[9]      c5        629
    x[9]      OBJ       -41
    x[10]     c1        847
    x[10]     c2        846
    x[10]     c3        769
    x[10]     c4        313
    x[10]     c5        960
    x[10]     OBJ       -915
    x[11]     c1        413
    x[11]     c2        105
    x[11]     c3        544
    x[11]     c4        642
    x[11]     c5        405
    x[11]     OBJ       -79
    x[12]     c1        363
    x[12]     c2        793
    x[12]     c3        532
    x[12]     c4        51
    x[12]     c5        907
    x[12]     OBJ       -242
    x[13]     c1        972
    x[13]     c2        534
    x[13]     c3        893
    x[13]     c4        472
    x[13]     c5        788
    x[13]     OBJ       -280
    x[14]     c1        576
    x[14]     c2        77
    x[14]     c3        362
    x[14]     c4        811
    x[14]     c5        302
    x[14]     OBJ       -234
    x[15]     c1        11
    x[15]     c2        668
    x[15]     c3        855
    x[15]     c4        809
    x[15]     c5        430
    x[15]     OBJ       -932
    x[16]     c1        229
    x[16]     c2        210
    x[16]     c3        842
    x[16]     c4        553
    x[16]     c5        36
    x[16]     OBJ       -22
    x[17]     c1        184
    x[17]     c2        83
    x[17]     c3        828
    x[17]     c4        634
    x[17]     c5        572
    x[17]     OBJ       -221
    x[18]     c1        763
    x[18]     c2        579
    x[18]     c3        966
    x[18]     c4        495
    x[18]     c5        806
    x[18]     OBJ       -592
    x[19]     c1        733
    x[19]     c2        146
    x[19]     c3        847
    x[19]     c4        315
    x[19]     c5        714
    x[19]     OBJ       -720
    x[20]     c1        747
    x[20]     c2        286
    x[20]     c3        853
    x[20]     c4        712
    x[20]     c5        305
    x[20]     OBJ       -903
    x[21]     c1        814
    x[21]     c2        821
    x[21]     c3        645
    x[21]     c4        726
    x[21]     c5        717
    x[21]     OBJ       -994
    x[22]     c1        924
    x[22]     c2        961
    x[22]     c3        396
    x[22]     c4        374
    x[22]     c5        166
    x[22]     OBJ       -618
    x[23]     c1        162
    x[23]     c2        641
    x[23]     c3        216
    x[23]     c4        658
    x[23]     c5        414
    x[23]     OBJ       -969
    x[24]     c1        424
    x[24]     c2        454
    x[24]     c3        545
    x[24]     c4        687
    x[24]     c5        158
    x[24]     OBJ       -136
    x[25]     c1        590
    x[25]     c2        762
    x[25]     c3        627
    x[25]     c4        386
    x[25]     c5        56
    x[25]     OBJ       -21
    x[26]     c1        806
    x[26]     c2        847
    x[26]     c3        818
    x[26]     c4        171
    x[26]     c5        324
    x[26]     OBJ       -456
    x[27]     c1        737
    x[27]     c2        549
    x[27]     c3        466
    x[27]     c4        952
    x[27]     c5        856
    x[27]     OBJ       -921
    x[28]     c1        789
    x[28]     c2        359
    x[28]     c3        845
    x[28]     c4        895
    x[28]     c5        415
    x[28]     OBJ       -555
    x[29]     c1        415
    x[29]     c2        24
    x[29]     c3        22
    x[29]     c4        597
    x[29]     c5        991
    x[29]     OBJ       -769
    x[30]     c1        95
    x[30]     c2        801
    x[30]     c3        315
    x[30]     c4        878
    x[30]     c5        511
    x[30]     OBJ       -353
    x[31]     c1        790
    x[31]     c2        339
    x[31]     c3        79
    x[31]     c4        98
    x[31]     c5        443
    x[31]     OBJ       -524
    x[32]     c1        396
    x[32]     c2        284
    x[32]     c3        133
    x[32]     c4        51
    x[32]     c5        142
    x[32]     OBJ       -372
    x[33]     c1        920
    x[33]     c2        872
    x[33]     c3        463
    x[33]     c4        684
    x[33]     c5        481
    x[33]     OBJ       -555
    x[34]     c1        896
    x[34]     c2        416
    x[34]     c3        375
    x[34]     c4        317
    x[34]     c5        886
    x[34]     OBJ       -100
    x[35]     c1        311
    x[35]     c2        949
    x[35]     c3        418
    x[35]     c4        661
    x[35]     c5        976
    x[35]     OBJ       -856
    x[36]     c1        589
    x[36]     c2        204
    x[36]     c3        67
    x[36]     c4        987
    x[36]     c5        231
    x[36]     OBJ       -514
    x[37]     c1        87
    x[37]     c2        382
    x[37]     c3        535
    x[37]     c4        481
    x[37]     c5        466
    x[37]     OBJ       -49
    x[38]     c1        740
    x[38]     c2        768
    x[38]     c3        516
    x[38]     c4        286
    x[38]     c5        675
    x[38]     OBJ       -992
    x[39]     c1        603
    x[39]     c2        717
    x[39]     c3        31
    x[39]     c4        487
    x[39]     c5        462
    x[39]     OBJ       -77
    x[40]     c1        638
    x[40]     c2        126
    x[40]     c3        544
    x[40]     c4        92
    x[40]     c5        447
    x[40]     OBJ       -372
    x[41]     c1        31
    x[41]     c2        629
    x[41]     c3        240
    x[41]     c4        159
    x[41]     c5        676
    x[41]     OBJ       -931
    x[42]     c1        360
    x[42]     c2        973
    x[42]     c3        853
    x[42]     c4        122
    x[42]     c5        670
    x[42]     OBJ       -435
    x[43]     c1        874
    x[43]     c2        638
    x[43]     c3        455
    x[43]     c4        595
    x[43]     c5        81
    x[43]     OBJ       -976
    x[44]     c1        508
    x[44]     c2        202
    x[44]     c3        378
    x[44]     c4        240
    x[44]     c5        184
    x[44]     OBJ       -687
    x[45]     c1        217
    x[45]     c2        455
    x[45]     c3        333
    x[45]     c4        281
    x[45]     c5        742
    x[45]     OBJ       -499
    x[46]     c1        572
    x[46]     c2        37
    x[46]     c3        754
    x[46]     c4        287
    x[46]     c5        940
    x[46]     OBJ       -196
    x[47]     c1        804
    x[47]     c2        913
    x[47]     c3        201
    x[47]     c4        379
    x[47]     c5        916
    x[47]     OBJ       -487
    x[48]     c1        293
    x[48]     c2        151
    x[48]     c3        401
    x[48]     c4        866
    x[48]     c5        82
    x[48]     OBJ       -835
    x[49]     c1        553
    x[49]     c2        98
    x[49]     c3        15
    x[49]     c4        520
    x[49]     c5        614
    x[49]     OBJ       -290
    x[50]     c1        765
    x[50]     c2        414
    x[50]     c3        152
    x[50]     c4        254
    x[50]     c5        220
    x[50]     OBJ       -63
RHS
    rhs       c1        13617
    rhs       c2        12754
    rhs       c3        12342
    rhs       c4        12012
    rhs       c5        12173
RANGES
BOUNDS
 BV bounds    x[1]
 BV bounds    x[2]
 BV bounds    x[3]
 BV bounds    x[4]
 BV bounds    x[5]
 BV bounds    x[6]
 BV bounds    x[7]
 BV bounds    x[8]
 BV bounds    x[9]
 BV bounds    x[10]
 BV bounds    x[11]
 BV bounds    x[12]
 BV bounds    x[13]
 BV bounds    x[14]
 BV bounds    x[15]
 BV bounds    x[16]
 BV bounds    x[17]
 BV bounds    x[18]
 BV bounds    x[19]
 BV bounds    x[20]
 BV bounds    x[21]
 BV bounds    x[22]
 BV bounds    x[23]
 BV bounds    x[24]
 BV bounds    x[25]
 BV bounds    x[26]
 BV bounds    x[27]
 BV bounds    x[28]
 BV bounds    x[29]
 BV bounds    x[30]
 BV bounds    x[31]
 BV bounds    x[32]
 BV bounds    x[33]
 BV bounds    x[34]
 BV bounds    x[35]
 BV bounds    x[36]
 BV bounds    x[37]
 BV bounds    x[38]
 BV bounds    x[39]
 BV bounds    x[40]
 BV bounds    x[41]
 BV bounds    x[42]
 BV bounds    x[43]
 BV bounds    x[44]
 BV bounds    x[45]
 BV bounds    x[46]
 BV bounds    x[47]
 BV bounds    x[48]
 BV bounds    x[49]
 BV bounds    x[50]
ENDATA
